7176-pulp.mps
*SENSE:Maximize
NAME          MODEL
ROWS
 N  OBJ
 L  C0000000
 L  C0000001
 L  C0000002
 L  C0000003
 L  C0000004
 L  C0000005
 L  C0000006
 L  C0000007
 L  C0000008
 L  C0000009
 L  C0000010
 L  C0000011
 L  C0000012
 L  C0000013
 L  C0000014
 L  C0000015
 L  C0000016
 L  C0000017
 L  C0000018
 L  C0000019
 L  C0000020
 L  C0000021
 L  C0000022
 L  C0000023
 L  C0000024
 L  C0000025
 L  C0000026
 L  C0000027
 L  C0000028
 L  C0000029
 L  C0000030
 L  C0000031
 L  C0000032
 L  C0000033
COLUMNS
    X0000000  C0000018   4.000000000000e+00
    X0000000  C0000031   4.000000000000e+00
    X0000000  C0000029   4.000000000000e+00
    X0000000  C0000023   4.000000000000e+00
    X0000000  C0000015   4.000000000000e+00
    X0000000  C0000032   4.000000000000e+00
    X0000000  C0000014   4.000000000000e+00
    X0000000  C0000008   4.000000000000e+00
    X0000000  C0000013   4.000000000000e+00
    X0000000  C0000028   4.000000000000e+00
    X0000000  C0000000   4.000000000000e+00
    X0000000  C0000010   4.000000000000e+00
    X0000000  C0000007   4.000000000000e+00
    X0000000  C0000017   4.000000000000e+00
    X0000000  C0000011   4.000000000000e+00
    X0000000  C0000005   4.000000000000e+00
    X0000000  C0000026   4.000000000000e+00
    X0000000  C0000002   4.000000000000e+00
    X0000000  C0000001   4.000000000000e+00
    X0000000  C0000033   4.000000000000e+00
    X0000000  C0000022   4.000000000000e+00
    X0000000  C0000020   4.000000000000e+00
    X0000000  C0000016   4.000000000000e+00
    X0000000  C0000003   4.000000000000e+00
    X0000000  C0000025   4.000000000000e+00
    X0000000  C0000006   4.000000000000e+00
    X0000000  C0000019   4.000000000000e+00
    X0000000  C0000012   4.000000000000e+00
    X0000000  C0000021   4.000000000000e+00
    X0000000  C0000027   4.000000000000e+00
    X0000000  C0000009   4.000000000000e+00
    X0000000  C0000004   4.000000000000e+00
    X0000000  C0000030   4.000000000000e+00
    X0000000  C0000024   4.000000000000e+00
    X0000000  OBJ        1.000000000000e+00
    X0000001  C0000018   1.000000000000e+00
    X0000001  C0000031   1.000000000000e+00
    X0000001  C0000029   1.000000000000e+00
    X0000001  C0000023   1.000000000000e+00
    X0000001  C0000015   1.000000000000e+00
    X0000001  C0000032   1.000000000000e+00
    X0000001  C0000014   1.000000000000e+00
    X0000001  C0000008   1.000000000000e+00
    X0000001  C0000013   1.000000000000e+00
    X0000001  C0000028   1.000000000000e+00
    X0000001  C0000000  -1.000000000000e+00
    X0000001  C0000010   1.000000000000e+00
    X0000001  C0000007   1.000000000000e+00
    X0000001  C0000017   1.000000000000e+00
    X0000001  C0000011   1.000000000000e+00
    X0000001  C0000005   1.000000000000e+00
    X0000001  C0000026   1.000000000000e+00
    X0000001  C0000002   1.000000000000e+00
    X0000001  C0000001   1.000000000000e+00
    X0000001  C0000033   1.000000000000e+00
    X0000001  C0000022   1.000000000000e+00
    X0000001  C0000020   1.000000000000e+00
    X0000001  C0000016   1.000000000000e+00
    X0000001  C0000003   1.000000000000e+00
    X0000001  C0000025   1.000000000000e+00
    X0000001  C0000006   1.000000000000e+00
    X0000001  C0000019   1.000000000000e+00
    X0000001  C0000012   1.000000000000e+00
    X0000001  C0000021   1.000000000000e+00
    X0000001  C0000027   1.000000000000e+00
    X0000001  C0000009   1.000000000000e+00
    X0000001  C0000004   1.000000000000e+00
    X0000001  C0000030   1.000000000000e+00
    X0000001  C0000024   1.000000000000e+00
    X0000002  C0000018  -1.000000000000e+00
    X0000002  C0000031  -1.000000000000e+00
    X0000002  C0000029  -1.000000000000e+00
    X0000002  C0000023  -1.000000000000e+00
    X0000002  C0000015  -1.000000000000e+00
    X0000002  C0000032  -1.000000000000e+00
    X0000002  C0000014  -1.000000000000e+00
    X0000002  C0000008  -1.000000000000e+00
    X0000002  C0000013  -1.000000000000e+00
    X0000002  C0000028  -1.000000000000e+00
    X0000002  C0000000  -1.000000000000e+00
    X0000002  C0000010  -1.000000000000e+00
    X0000002  C0000007  -1.000000000000e+00
    X0000002  C0000017  -1.000000000000e+00
    X0000002  C0000011  -1.000000000000e+00
    X0000002  C0000005  -1.000000000000e+00
    X0000002  C0000026  -1.000000000000e+00
    X0000002  C0000002  -1.000000000000e+00
    X0000002  C0000001  -1.000000000000e+00
    X0000002  C0000033  -1.000000000000e+00
    X0000002  C0000022  -1.000000000000e+00
    X0000002  C0000020  -1.000000000000e+00
    X0000002  C0000016  -1.000000000000e+00
    X0000002  C0000003  -1.000000000000e+00
    X0000002  C0000025  -1.000000000000e+00
    X0000002  C0000006  -1.000000000000e+00
    X0000002  C0000019  -1.000000000000e+00
    X0000002  C0000012  -1.000000000000e+00
    X0000002  C0000021  -1.000000000000e+00
    X0000002  C0000027  -1.000000000000e+00
    X0000002  C0000009  -1.000000000000e+00
    X0000002  C0000004  -1.000000000000e+00
    X0000002  C0000030  -1.000000000000e+00
    X0000002  C0000024  -1.000000000000e+00
    X0000003  C0000018  -1.000000000000e+00
    X0000003  C0000031  -1.000000000000e+00
    X0000003  C0000029  -1.000000000000e+00
    X0000003  C0000023  -1.000000000000e+00
    X0000003  C0000015  -1.000000000000e+00
    X0000003  C0000032  -1.000000000000e+00
    X0000003  C0000014  -1.000000000000e+00
    X0000003  C0000008  -1.000000000000e+00
    X0000003  C0000013  -1.000000000000e+00
    X0000003  C0000028  -1.000000000000e+00
    X0000003  C0000000  -1.000000000000e+00
    X0000003  C0000010  -1.000000000000e+00
    X0000003  C0000007  -1.000000000000e+00
    X0000003  C0000017  -1.000000000000e+00
    X0000003  C0000011  -1.000000000000e+00
    X0000003  C0000005  -1.000000000000e+00
    X0000003  C0000026  -1.000000000000e+00
    X0000003  C0000002  -1.000000000000e+00
    X0000003  C0000001   1.000000000000e+00
    X0000003  C0000033  -1.000000000000e+00
    X0000003  C0000022  -1.000000000000e+00
    X0000003  C0000020  -1.000000000000e+00
    X0000003  C0000016  -1.000000000000e+00
    X0000003  C0000003  -1.000000000000e+00
    X0000003  C0000025  -1.000000000000e+00
    X0000003  C0000006  -1.000000000000e+00
    X0000003  C0000019  -1.000000000000e+00
    X0000003  C0000012  -1.000000000000e+00
    X0000003  C0000021  -1.000000000000e+00
    X0000003  C0000027  -1.000000000000e+00
    X0000003  C0000009  -1.000000000000e+00
    X0000003  C0000004  -1.000000000000e+00
    X0000003  C0000030  -1.000000000000e+00
    X0000003  C0000024  -1.000000000000e+00
    X0000004  C0000018  -1.000000000000e+00
    X0000004  C0000031  -1.000000000000e+00
    X0000004  C0000029  -1.000000000000e+00
    X0000004  C0000023  -1.000000000000e+00
    X0000004  C0000015  -1.000000000000e+00
    X0000004  C0000032  -1.000000000000e+00
    X0000004  C0000014  -1.000000000000e+00
    X0000004  C0000008  -1.000000000000e+00
    X0000004  C0000013  -1.000000000000e+00
    X0000004  C0000028  -1.000000000000e+00
    X0000004  C0000000  -1.000000000000e+00
    X0000004  C0000010  -1.000000000000e+00
    X0000004  C0000007  -1.000000000000e+00
    X0000004  C0000017  -1.000000000000e+00
    X0000004  C0000011  -1.000000000000e+00
    X0000004  C0000005  -1.000000000000e+00
    X0000004  C0000026  -1.000000000000e+00
    X0000004  C0000002  -1.000000000000e+00
    X0000004  C0000001  -1.000000000000e+00
    X0000004  C0000033  -1.000000000000e+00
    X0000004  C0000022  -1.000000000000e+00
    X0000004  C0000020  -1.000000000000e+00
    X0000004  C0000016  -1.000000000000e+00
    X0000004  C0000003  -1.000000000000e+00
    X0000004  C0000025  -1.000000000000e+00
    X0000004  C0000006  -1.000000000000e+00
    X0000004  C0000019  -1.000000000000e+00
    X0000004  C0000012  -1.000000000000e+00
    X0000004  C0000021  -1.000000000000e+00
    X0000004  C0000027  -1.000000000000e+00
    X0000004  C0000009  -1.000000000000e+00
    X0000004  C0000004  -1.000000000000e+00
    X0000004  C0000030  -1.000000000000e+00
    X0000004  C0000024  -1.000000000000e+00
    X0000005  C0000018  -1.000000000000e+00
    X0000005  C0000031  -1.000000000000e+00
    X0000005  C0000029  -1.000000000000e+00
    X0000005  C0000023  -1.000000000000e+00
    X0000005  C0000015  -1.000000000000e+00
    X0000005  C0000032  -1.000000000000e+00
    X0000005  C0000014  -1.000000000000e+00
    X0000005  C0000008  -1.000000000000e+00
    X0000005  C0000013  -1.000000000000e+00
    X0000005  C0000028  -1.000000000000e+00
    X0000005  C0000000  -1.000000000000e+00
    X0000005  C0000010  -1.000000000000e+00
    X0000005  C0000007  -1.000000000000e+00
    X0000005  C0000017  -1.000000000000e+00
    X0000005  C0000011  -1.000000000000e+00
    X0000005  C0000005  -1.000000000000e+00
    X0000005  C0000026  -1.000000000000e+00
    X0000005  C0000002  -1.000000000000e+00
    X0000005  C0000001   1.000000000000e+00
    X0000005  C0000033  -1.000000000000e+00
    X0000005  C0000022  -1.000000000000e+00
    X0000005  C0000020  -1.000000000000e+00
    X0000005  C0000016  -1.000000000000e+00
    X0000005  C0000003  -1.000000000000e+00
    X0000005  C0000025  -1.000000000000e+00
    X0000005  C0000006  -1.000000000000e+00
    X0000005  C0000019  -1.000000000000e+00
    X0000005  C0000012  -1.000000000000e+00
    X0000005  C0000021  -1.000000000000e+00
    X0000005  C0000027  -1.000000000000e+00
    X0000005  C0000009  -1.000000000000e+00
    X0000005  C0000004  -1.000000000000e+00
    X0000005  C0000030  -1.000000000000e+00
    X0000005  C0000024  -1.000000000000e+00
    X0000006  C0000018  -1.000000000000e+00
    X0000006  C0000031  -1.000000000000e+00
    X0000006  C0000029  -1.000000000000e+00
    X0000006  C0000023  -1.000000000000e+00
    X0000006  C0000015  -1.000000000000e+00
    X0000006  C0000032  -1.000000000000e+00
    X0000006  C0000014  -1.000000000000e+00
    X0000006  C0000008  -1.000000000000e+00
    X0000006  C0000013  -1.000000000000e+00
    X0000006  C0000028  -1.000000000000e+00
    X0000006  C0000000  -1.000000000000e+00
    X0000006  C0000010  -1.000000000000e+00
    X0000006  C0000007  -1.000000000000e+00
    X0000006  C0000017  -1.000000000000e+00
    X0000006  C0000011  -1.000000000000e+00
    X0000006  C0000005  -1.000000000000e+00
    X0000006  C0000026  -1.000000000000e+00
    X0000006  C0000002  -1.000000000000e+00
    X0000006  C0000001  -1.000000000000e+00
    X0000006  C0000033  -1.000000000000e+00
    X0000006  C0000022  -1.000000000000e+00
    X0000006  C0000020  -1.000000000000e+00
    X0000006  C0000016  -1.000000000000e+00
    X0000006  C0000003  -1.000000000000e+00
    X0000006  C0000025  -1.000000000000e+00
    X0000006  C0000006  -1.000000000000e+00
    X0000006  C0000019  -1.000000000000e+00
    X0000006  C0000012  -1.000000000000e+00
    X0000006  C0000021  -1.000000000000e+00
    X0000006  C0000027  -1.000000000000e+00
    X0000006  C0000009  -1.000000000000e+00
    X0000006  C0000004  -1.000000000000e+00
    X0000006  C0000030  -1.000000000000e+00
    X0000006  C0000024  -1.000000000000e+00
    X0000007  C0000018  -1.000000000000e+00
    X0000007  C0000031  -1.000000000000e+00
    X0000007  C0000029  -1.000000000000e+00
    X0000007  C0000023  -1.000000000000e+00
    X0000007  C0000015  -1.000000000000e+00
    X0000007  C0000032  -1.000000000000e+00
    X0000007  C0000014  -1.000000000000e+00
    X0000007  C0000008  -1.000000000000e+00
    X0000007  C0000013  -1.000000000000e+00
    X0000007  C0000028  -1.000000000000e+00
    X0000007  C0000000  -1.000000000000e+00
    X0000007  C0000010  -1.000000000000e+00
    X0000007  C0000007  -1.000000000000e+00
    X0000007  C0000017  -1.000000000000e+00
    X0000007  C0000011  -1.000000000000e+00
    X0000007  C0000005  -1.000000000000e+00
    X0000007  C0000026  -1.000000000000e+00
    X0000007  C0000002  -1.000000000000e+00
    X0000007  C0000001   1.000000000000e+00
    X0000007  C0000033  -1.000000000000e+00
    X0000007  C0000022  -1.000000000000e+00
    X0000007  C0000020  -1.000000000000e+00
    X0000007  C0000016  -1.000000000000e+00
    X0000007  C0000003  -1.000000000000e+00
    X0000007  C0000025  -1.000000000000e+00
    X0000007  C0000006  -1.000000000000e+00
    X0000007  C0000019  -1.000000000000e+00
    X0000007  C0000012  -1.000000000000e+00
    X0000007  C0000021  -1.000000000000e+00
    X0000007  C0000027  -1.000000000000e+00
    X0000007  C0000009  -1.000000000000e+00
    X0000007  C0000004  -1.000000000000e+00
    X0000007  C0000030  -1.000000000000e+00
    X0000007  C0000024  -1.000000000000e+00
    X0000008  C0000018  -1.000000000000e+00
    X0000008  C0000031  -1.000000000000e+00
    X0000008  C0000029  -1.000000000000e+00
    X0000008  C0000023  -1.000000000000e+00
    X0000008  C0000015  -1.000000000000e+00
    X0000008  C0000032  -1.000000000000e+00
    X0000008  C0000014  -1.000000000000e+00
    X0000008  C0000008  -1.000000000000e+00
    X0000008  C0000013  -1.000000000000e+00
    X0000008  C0000028  -1.000000000000e+00
    X0000008  C0000000  -1.000000000000e+00
    X0000008  C0000010  -1.000000000000e+00
    X0000008  C0000007  -1.000000000000e+00
    X0000008  C0000017  -1.000000000000e+00
    X0000008  C0000011  -1.000000000000e+00
    X0000008  C0000005  -1.000000000000e+00
    X0000008  C0000026  -1.000000000000e+00
    X0000008  C0000002  -1.000000000000e+00
    X0000008  C0000001  -1.000000000000e+00
    X0000008  C0000033  -1.000000000000e+00
    X0000008  C0000022  -1.000000000000e+00
    X0000008  C0000020  -1.000000000000e+00
    X0000008  C0000016  -1.000000000000e+00
    X0000008  C0000003  -1.000000000000e+00
    X0000008  C0000025  -1.000000000000e+00
    X0000008  C0000006  -1.000000000000e+00
    X0000008  C0000019  -1.000000000000e+00
    X0000008  C0000012  -1.000000000000e+00
    X0000008  C0000021  -1.000000000000e+00
    X0000008  C0000027  -1.000000000000e+00
    X0000008  C0000009  -1.000000000000e+00
    X0000008  C0000004  -1.000000000000e+00
    X0000008  C0000030  -1.000000000000e+00
    X0000008  C0000024  -1.000000000000e+00
    X0000009  C0000018   1.000000000000e+00
    X0000009  C0000031   1.000000000000e+00
    X0000009  C0000029   1.000000000000e+00
    X0000009  C0000023   1.000000000000e+00
    X0000009  C0000015   1.000000000000e+00
    X0000009  C0000032   1.000000000000e+00
    X0000009  C0000014   1.000000000000e+00
    X0000009  C0000008   1.000000000000e+00
    X0000009  C0000013   1.000000000000e+00
    X0000009  C0000028   1.000000000000e+00
    X0000009  C0000000  -1.000000000000e+00
    X0000009  C0000010   1.000000000000e+00
    X0000009  C0000007   1.000000000000e+00
    X0000009  C0000017   1.000000000000e+00
    X0000009  C0000011   1.000000000000e+00
    X0000009  C0000005   1.000000000000e+00
    X0000009  C0000026   1.000000000000e+00
    X0000009  C0000002   1.000000000000e+00
    X0000009  C0000001   1.000000000000e+00
    X0000009  C0000033   1.000000000000e+00
    X0000009  C0000022   1.000000000000e+00
    X0000009  C0000020   1.000000000000e+00
    X0000009  C0000016   1.000000000000e+00
    X0000009  C0000003   1.000000000000e+00
    X0000009  C0000025   1.000000000000e+00
    X0000009  C0000006   1.000000000000e+00
    X0000009  C0000019   1.000000000000e+00
    X0000009  C0000012   1.000000000000e+00
    X0000009  C0000021   1.000000000000e+00
    X0000009  C0000027   1.000000000000e+00
    X0000009  C0000009   1.000000000000e+00
    X0000009  C0000004   1.000000000000e+00
    X0000009  C0000030   1.000000000000e+00
    X0000009  C0000024   1.000000000000e+00
    X0000010  C0000018  -1.000000000000e+00
    X0000010  C0000031  -1.000000000000e+00
    X0000010  C0000029  -1.000000000000e+00
    X0000010  C0000023  -1.000000000000e+00
    X0000010  C0000015  -1.000000000000e+00
    X0000010  C0000032  -1.000000000000e+00
    X0000010  C0000014  -1.000000000000e+00
    X0000010  C0000008  -1.000000000000e+00
    X0000010  C0000013  -1.000000000000e+00
    X0000010  C0000028  -1.000000000000e+00
    X0000010  C0000000  -1.000000000000e+00
    X0000010  C0000010  -1.000000000000e+00
    X0000010  C0000007  -1.000000000000e+00
    X0000010  C0000017  -1.000000000000e+00
    X0000010  C0000011  -1.000000000000e+00
    X0000010  C0000005  -1.000000000000e+00
    X0000010  C0000026  -1.000000000000e+00
    X0000010  C0000002  -1.000000000000e+00
    X0000010  C0000001  -1.000000000000e+00
    X0000010  C0000033  -1.000000000000e+00
    X0000010  C0000022  -1.000000000000e+00
    X0000010  C0000020  -1.000000000000e+00
    X0000010  C0000016  -1.000000000000e+00
    X0000010  C0000003  -1.000000000000e+00
    X0000010  C0000025  -1.000000000000e+00
    X0000010  C0000006  -1.000000000000e+00
    X0000010  C0000019  -1.000000000000e+00
    X0000010  C0000012  -1.000000000000e+00
    X0000010  C0000021  -1.000000000000e+00
    X0000010  C0000027  -1.000000000000e+00
    X0000010  C0000009  -1.000000000000e+00
    X0000010  C0000004  -1.000000000000e+00
    X0000010  C0000030  -1.000000000000e+00
    X0000010  C0000024  -1.000000000000e+00
    X0000011  C0000018   1.000000000000e+00
    X0000011  C0000031   1.000000000000e+00
    X0000011  C0000029   1.000000000000e+00
    X0000011  C0000023   1.000000000000e+00
    X0000011  C0000015   1.000000000000e+00
    X0000011  C0000032   1.000000000000e+00
    X0000011  C0000014   1.000000000000e+00
    X0000011  C0000008   1.000000000000e+00
    X0000011  C0000013   1.000000000000e+00
    X0000011  C0000028   1.000000000000e+00
    X0000011  C0000000  -1.000000000000e+00
    X0000011  C0000010   1.000000000000e+00
    X0000011  C0000007   1.000000000000e+00
    X0000011  C0000017   1.000000000000e+00
    X0000011  C0000011   1.000000000000e+00
    X0000011  C0000005   1.000000000000e+00
    X0000011  C0000026   1.000000000000e+00
    X0000011  C0000002   1.000000000000e+00
    X0000011  C0000001   1.000000000000e+00
    X0000011  C0000033   1.000000000000e+00
    X0000011  C0000022   1.000000000000e+00
    X0000011  C0000020   1.000000000000e+00
    X0000011  C0000016   1.000000000000e+00
    X0000011  C0000003   1.000000000000e+00
    X0000011  C0000025   1.000000000000e+00
    X0000011  C0000006   1.000000000000e+00
    X0000011  C0000019   1.000000000000e+00
    X0000011  C0000012   1.000000000000e+00
    X0000011  C0000021   1.000000000000e+00
    X0000011  C0000027   1.000000000000e+00
    X0000011  C0000009   1.000000000000e+00
    X0000011  C0000004   1.000000000000e+00
    X0000011  C0000030   1.000000000000e+00
    X0000011  C0000024   1.000000000000e+00
    X0000012  C0000018  -1.000000000000e+00
    X0000012  C0000031  -1.000000000000e+00
    X0000012  C0000029  -1.000000000000e+00
    X0000012  C0000023  -1.000000000000e+00
    X0000012  C0000015  -1.000000000000e+00
    X0000012  C0000032  -1.000000000000e+00
    X0000012  C0000014  -1.000000000000e+00
    X0000012  C0000008  -1.000000000000e+00
    X0000012  C0000013  -1.000000000000e+00
    X0000012  C0000028  -1.000000000000e+00
    X0000012  C0000000  -1.000000000000e+00
    X0000012  C0000010  -1.000000000000e+00
    X0000012  C0000007  -1.000000000000e+00
    X0000012  C0000017  -1.000000000000e+00
    X0000012  C0000011  -1.000000000000e+00
    X0000012  C0000005  -1.000000000000e+00
    X0000012  C0000026  -1.000000000000e+00
    X0000012  C0000002  -1.000000000000e+00
    X0000012  C0000001  -1.000000000000e+00
    X0000012  C0000033  -1.000000000000e+00
    X0000012  C0000022  -1.000000000000e+00
    X0000012  C0000020  -1.000000000000e+00
    X0000012  C0000016  -1.000000000000e+00
    X0000012  C0000003  -1.000000000000e+00
    X0000012  C0000025  -1.000000000000e+00
    X0000012  C0000006  -1.000000000000e+00
    X0000012  C0000019  -1.000000000000e+00
    X0000012  C0000012  -1.000000000000e+00
    X0000012  C0000021  -1.000000000000e+00
    X0000012  C0000027  -1.000000000000e+00
    X0000012  C0000009  -1.000000000000e+00
    X0000012  C0000004  -1.000000000000e+00
    X0000012  C0000030  -1.000000000000e+00
    X0000012  C0000024  -1.000000000000e+00
    X0000013  C0000018  -1.000000000000e+00
    X0000013  C0000031  -1.000000000000e+00
    X0000013  C0000029  -1.000000000000e+00
    X0000013  C0000023  -1.000000000000e+00
    X0000013  C0000015  -1.000000000000e+00
    X0000013  C0000032  -1.000000000000e+00
    X0000013  C0000014  -1.000000000000e+00
    X0000013  C0000008  -1.000000000000e+00
    X0000013  C0000013  -1.000000000000e+00
    X0000013  C0000028  -1.000000000000e+00
    X0000013  C0000000  -1.000000000000e+00
    X0000013  C0000010  -1.000000000000e+00
    X0000013  C0000007  -1.000000000000e+00
    X0000013  C0000017  -1.000000000000e+00
    X0000013  C0000011  -1.000000000000e+00
    X0000013  C0000005  -1.000000000000e+00
    X0000013  C0000026  -1.000000000000e+00
    X0000013  C0000002   1.000000000000e+00
    X0000013  C0000001   1.000000000000e+00
    X0000013  C0000033  -1.000000000000e+00
    X0000013  C0000022  -1.000000000000e+00
    X0000013  C0000020  -1.000000000000e+00
    X0000013  C0000016  -1.000000000000e+00
    X0000013  C0000003  -1.000000000000e+00
    X0000013  C0000025  -1.000000000000e+00
    X0000013  C0000006  -1.000000000000e+00
    X0000013  C0000019  -1.000000000000e+00
    X0000013  C0000012  -1.000000000000e+00
    X0000013  C0000021  -1.000000000000e+00
    X0000013  C0000027  -1.000000000000e+00
    X0000013  C0000009  -1.000000000000e+00
    X0000013  C0000004  -1.000000000000e+00
    X0000013  C0000030  -1.000000000000e+00
    X0000013  C0000024  -1.000000000000e+00
    X0000014  C0000018  -1.000000000000e+00
    X0000014  C0000031  -1.000000000000e+00
    X0000014  C0000029  -1.000000000000e+00
    X0000014  C0000023  -1.000000000000e+00
    X0000014  C0000015  -1.000000000000e+00
    X0000014  C0000032  -1.000000000000e+00
    X0000014  C0000014  -1.000000000000e+00
    X0000014  C0000008  -1.000000000000e+00
    X0000014  C0000013  -1.000000000000e+00
    X0000014  C0000028  -1.000000000000e+00
    X0000014  C0000000  -1.000000000000e+00
    X0000014  C0000010  -1.000000000000e+00
    X0000014  C0000007  -1.000000000000e+00
    X0000014  C0000017  -1.000000000000e+00
    X0000014  C0000011  -1.000000000000e+00
    X0000014  C0000005  -1.000000000000e+00
    X0000014  C0000026  -1.000000000000e+00
    X0000014  C0000002  -1.000000000000e+00
    X0000014  C0000001  -1.000000000000e+00
    X0000014  C0000033  -1.000000000000e+00
    X0000014  C0000022  -1.000000000000e+00
    X0000014  C0000020  -1.000000000000e+00
    X0000014  C0000016  -1.000000000000e+00
    X0000014  C0000003  -1.000000000000e+00
    X0000014  C0000025  -1.000000000000e+00
    X0000014  C0000006  -1.000000000000e+00
    X0000014  C0000019  -1.000000000000e+00
    X0000014  C0000012  -1.000000000000e+00
    X0000014  C0000021  -1.000000000000e+00
    X0000014  C0000027  -1.000000000000e+00
    X0000014  C0000009  -1.000000000000e+00
    X0000014  C0000004  -1.000000000000e+00
    X0000014  C0000030  -1.000000000000e+00
    X0000014  C0000024  -1.000000000000e+00
    X0000015  C0000018   1.000000000000e+00
    X0000015  C0000031   1.000000000000e+00
    X0000015  C0000029   1.000000000000e+00
    X0000015  C0000023   1.000000000000e+00
    X0000015  C0000015   1.000000000000e+00
    X0000015  C0000032   1.000000000000e+00
    X0000015  C0000014   1.000000000000e+00
    X0000015  C0000008   1.000000000000e+00
    X0000015  C0000013   1.000000000000e+00
    X0000015  C0000028   1.000000000000e+00
    X0000015  C0000000  -1.000000000000e+00
    X0000015  C0000010   1.000000000000e+00
    X0000015  C0000007   1.000000000000e+00
    X0000015  C0000017   1.000000000000e+00
    X0000015  C0000011   1.000000000000e+00
    X0000015  C0000005   1.000000000000e+00
    X0000015  C0000026   1.000000000000e+00
    X0000015  C0000002  -1.000000000000e+00
    X0000015  C0000001   1.000000000000e+00
    X0000015  C0000033   1.000000000000e+00
    X0000015  C0000022   1.000000000000e+00
    X0000015  C0000020   1.000000000000e+00
    X0000015  C0000016   1.000000000000e+00
    X0000015  C0000003   1.000000000000e+00
    X0000015  C0000025   1.000000000000e+00
    X0000015  C0000006   1.000000000000e+00
    X0000015  C0000019   1.000000000000e+00
    X0000015  C0000012   1.000000000000e+00
    X0000015  C0000021   1.000000000000e+00
    X0000015  C0000027   1.000000000000e+00
    X0000015  C0000009   1.000000000000e+00
    X0000015  C0000004   1.000000000000e+00
    X0000015  C0000030   1.000000000000e+00
    X0000015  C0000024   1.000000000000e+00
    X0000016  C0000018  -1.000000000000e+00
    X0000016  C0000031  -1.000000000000e+00
    X0000016  C0000029  -1.000000000000e+00
    X0000016  C0000023  -1.000000000000e+00
    X0000016  C0000015  -1.000000000000e+00
    X0000016  C0000032  -1.000000000000e+00
    X0000016  C0000014  -1.000000000000e+00
    X0000016  C0000008  -1.000000000000e+00
    X0000016  C0000013  -1.000000000000e+00
    X0000016  C0000028  -1.000000000000e+00
    X0000016  C0000000  -1.000000000000e+00
    X0000016  C0000010  -1.000000000000e+00
    X0000016  C0000007  -1.000000000000e+00
    X0000016  C0000017  -1.000000000000e+00
    X0000016  C0000011  -1.000000000000e+00
    X0000016  C0000005  -1.000000000000e+00
    X0000016  C0000026  -1.000000000000e+00
    X0000016  C0000002  -1.000000000000e+00
    X0000016  C0000001  -1.000000000000e+00
    X0000016  C0000033  -1.000000000000e+00
    X0000016  C0000022  -1.000000000000e+00
    X0000016  C0000020  -1.000000000000e+00
    X0000016  C0000016  -1.000000000000e+00
    X0000016  C0000003  -1.000000000000e+00
    X0000016  C0000025  -1.000000000000e+00
    X0000016  C0000006  -1.000000000000e+00
    X0000016  C0000019  -1.000000000000e+00
    X0000016  C0000012  -1.000000000000e+00
    X0000016  C0000021  -1.000000000000e+00
    X0000016  C0000027  -1.000000000000e+00
    X0000016  C0000009  -1.000000000000e+00
    X0000016  C0000004  -1.000000000000e+00
    X0000016  C0000030  -1.000000000000e+00
    X0000016  C0000024  -1.000000000000e+00
RHS
    RHS       C0000000   0.000000000000e+00
    RHS       C0000001   0.000000000000e+00
    RHS       C0000002   0.000000000000e+00
    RHS       C0000003   0.000000000000e+00
    RHS       C0000004   0.000000000000e+00
    RHS       C0000005   0.000000000000e+00
    RHS       C0000006   0.000000000000e+00
    RHS       C0000007   0.000000000000e+00
    RHS       C0000008   0.000000000000e+00
    RHS       C0000009   0.000000000000e+00
    RHS       C0000010   0.000000000000e+00
    RHS       C0000011   0.000000000000e+00
    RHS       C0000012   0.000000000000e+00
    RHS       C0000013   0.000000000000e+00
    RHS       C0000014   0.000000000000e+00
    RHS       C0000015   0.000000000000e+00
    RHS       C0000016   0.000000000000e+00
    RHS       C0000017   0.000000000000e+00
    RHS       C0000018   0.000000000000e+00
    RHS       C0000019   0.000000000000e+00
    RHS       C0000020   0.000000000000e+00
    RHS       C0000021   0.000000000000e+00
    RHS       C0000022   0.000000000000e+00
    RHS       C0000023   0.000000000000e+00
    RHS       C0000024   0.000000000000e+00
    RHS       C0000025   0.000000000000e+00
    RHS       C0000026   0.000000000000e+00
    RHS       C0000027   0.000000000000e+00
    RHS       C0000028   0.000000000000e+00
    RHS       C0000029   0.000000000000e+00
    RHS       C0000030   0.000000000000e+00
    RHS       C0000031   0.000000000000e+00
    RHS       C0000032   0.000000000000e+00
    RHS       C0000033   0.000000000000e+00
BOUNDS
 FR BND       X0000000
 LO BND       X0000001  -1.000000000000e+00
 UP BND       X0000001   1.000000000000e+00
 LO BND       X0000002  -1.000000000000e+00
 UP BND       X0000002   1.000000000000e+00
 LO BND       X0000003  -1.000000000000e+00
 UP BND       X0000003   1.000000000000e+00
 LO BND       X0000004  -1.000000000000e+00
 UP BND       X0000004   1.000000000000e+00
 LO BND       X0000005  -1.000000000000e+00
 UP BND       X0000005   1.000000000000e+00
 LO BND       X0000006  -1.000000000000e+00
 UP BND       X0000006   1.000000000000e+00
 LO BND       X0000007  -1.000000000000e+00
 UP BND       X0000007   1.000000000000e+00
 LO BND       X0000008  -1.000000000000e+00
 UP BND       X0000008   1.000000000000e+00
 LO BND       X0000009  -1.000000000000e+00
 UP BND       X0000009   1.000000000000e+00
 LO BND       X0000010  -1.000000000000e+00
 UP BND       X0000010   1.000000000000e+00
 LO BND       X0000011  -1.000000000000e+00
 UP BND       X0000011   1.000000000000e+00
 LO BND       X0000012  -1.000000000000e+00
 UP BND       X0000012   1.000000000000e+00
 LO BND       X0000013  -1.000000000000e+00
 UP BND       X0000013   1.000000000000e+00
 LO BND       X0000014  -1.000000000000e+00
 UP BND       X0000014   1.000000000000e+00
 LO BND       X0000015  -1.000000000000e+00
 UP BND       X0000015   1.000000000000e+00
 LO BND       X0000016  -1.000000000000e+00
 UP BND       X0000016   1.000000000000e+00
ENDATA
