7176-pulp.sol
Optimal - objective value 2.00000000
      0 C0000000               0                   0.125
      1 C0000001               0                   0.125
      2 C0000002               0                      -0
      3 C0000003               0                      -0
      4 C0000004               0                      -0
      5 C0000005               0                      -0
      6 C0000006               0                      -0
      7 C0000007               0                      -0
      8 C0000008               0                      -0
      9 C0000009               0                      -0
     10 C0000010               0                      -0
     11 C0000011               0                      -0
     12 C0000012               0                      -0
     13 C0000013               0                      -0
     14 C0000014               0                      -0
     15 C0000015               0                      -0
     16 C0000016               0                      -0
     17 C0000017               0                      -0
     18 C0000018               0                      -0
     19 C0000019               0                      -0
     20 C0000020               0                      -0
     21 C0000021               0                      -0
     22 C0000022               0                      -0
     23 C0000023               0                      -0
     24 C0000024               0                      -0
     25 C0000025               0                      -0
     26 C0000026               0                      -0
     27 C0000027               0                      -0
     28 C0000028               0                      -0
     29 C0000029               0                      -0
     30 C0000030               0                      -0
     31 C0000031               0                      -0
     32 C0000032               0                      -0
     33 C0000033               0                      -0
      0 X0000000               2                       0
      1 X0000001               1                       0
      2 X0000002               1                    0.25
      3 X0000003               1                       0
      4 X0000004               1                    0.25
      5 X0000005               1                       0
      6 X0000006               1                    0.25
      7 X0000007              -1                       0
      8 X0000008               1                    0.25
      9 X0000009               1                       0
     10 X0000010               1                    0.25
     11 X0000011              -1                       0
     12 X0000012               1                    0.25
     13 X0000013              -1                       0
     14 X0000014               1                    0.25
     15 X0000015              -1                       0
     16 X0000016               1                    0.25
